D = 12;
T = 20;
N = 4;
maxDT = 8;
maxDL = 2;
minDT = 5;
supervisors = [true, true, true, true, true, true, false, false, false, false, false, false, false, false, false, false, false, false, false, false];